Route #1: 4 45 29 48 30
Route #2: 2 62 22 28 61 21
Route #3: 5 47 36 60 20 37 15 57
Route #4: 27 13 54 52 34 46 7
Route #5: 8 35 19 59 14 53
Route #6: 11 38 10 58 12
Route #7: 40 9 32 44 3
Route #8: 39 31 55 25 50 18 24 49
Route #9: 23 56 41 64 42 43 1
Route #10: 6 33 63 16 51 17 26
Cost 825